c Reduced graph for p34_0 generated by Cyril Grelier
p edge 74 421
e 1 2
e 1 3
e 1 4
e 1 5
e 1 6
e 1 7
e 1 8
e 1 9
e 1 10
e 1 11
e 1 12
e 1 13
e 1 17
e 1 18
e 1 19
e 1 26
e 1 38
e 1 46
e 2 3
e 2 8
e 2 9
e 2 10
e 2 14
e 2 15
e 2 16
e 2 18
e 2 19
e 2 23
e 2 24
e 2 25
e 2 26
e 2 32
e 2 46
e 2 58
e 3 8
e 3 9
e 3 10
e 3 18
e 3 19
e 3 20
e 3 21
e 3 22
e 3 26
e 3 30
e 3 31
e 3 44
e 3 45
e 3 46
e 4 5
e 4 6
e 4 7
e 4 11
e 4 12
e 4 13
e 4 14
e 4 17
e 4 20
e 4 27
e 4 33
e 4 38
e 4 41
e 4 47
e 5 6
e 5 7
e 5 11
e 5 12
e 5 13
e 5 17
e 5 21
e 5 34
e 5 36
e 5 38
e 5 48
e 5 56
e 5 59
e 6 7
e 6 11
e 6 12
e 6 13
e 6 15
e 6 17
e 6 22
e 6 28
e 6 37
e 6 38
e 6 42
e 6 53
e 7 11
e 7 12
e 7 13
e 7 16
e 7 17
e 7 29
e 7 35
e 7 38
e 7 43
e 7 49
e 7 57
e 8 9
e 8 10
e 8 18
e 8 19
e 8 26
e 8 27
e 8 28
e 8 29
e 8 39
e 8 40
e 8 46
e 8 54
e 9 10
e 9 18
e 9 19
e 9 26
e 9 33
e 9 34
e 9 35
e 9 46
e 9 60
e 9 61
e 10 18
e 10 19
e 10 26
e 10 36
e 10 37
e 10 46
e 10 50
e 10 51
e 10 52
e 11 12
e 11 13
e 11 17
e 11 23
e 11 30
e 11 38
e 11 39
e 11 50
e 11 62
e 12 13
e 12 17
e 12 24
e 12 38
e 12 40
e 12 51
e 12 55
e 12 63
e 13 17
e 13 25
e 13 31
e 13 38
e 13 52
e 13 66
e 13 72
e 14 15
e 14 16
e 14 20
e 14 23
e 14 24
e 14 25
e 14 27
e 14 32
e 14 33
e 14 41
e 14 47
e 14 58
e 15 16
e 15 22
e 15 23
e 15 24
e 15 25
e 15 28
e 15 32
e 15 37
e 15 42
e 15 53
e 15 58
e 16 23
e 16 24
e 16 25
e 16 29
e 16 32
e 16 35
e 16 43
e 16 49
e 16 57
e 16 58
e 17 38
e 17 60
e 17 64
e 17 67
e 17 70
e 18 19
e 18 26
e 18 46
e 18 53
e 18 67
e 18 68
e 18 73
e 19 26
e 19 46
e 19 56
e 19 57
e 19 66
e 19 69
e 20 21
e 20 22
e 20 27
e 20 30
e 20 31
e 20 33
e 20 41
e 20 44
e 20 45
e 20 47
e 21 22
e 21 30
e 21 31
e 21 34
e 21 36
e 21 44
e 21 45
e 21 48
e 21 56
e 21 59
e 22 28
e 22 30
e 22 31
e 22 37
e 22 42
e 22 44
e 22 45
e 22 53
e 23 24
e 23 25
e 23 30
e 23 32
e 23 39
e 23 50
e 23 58
e 23 62
e 24 25
e 24 32
e 24 40
e 24 51
e 24 55
e 24 58
e 24 63
e 25 31
e 25 32
e 25 52
e 25 58
e 25 66
e 25 72
e 26 46
e 26 59
e 26 70
e 26 71
e 27 28
e 27 29
e 27 33
e 27 39
e 27 40
e 27 41
e 27 47
e 27 54
e 28 29
e 28 37
e 28 39
e 28 40
e 28 42
e 28 53
e 28 54
e 29 35
e 29 39
e 29 40
e 29 43
e 29 49
e 29 54
e 29 57
e 30 31
e 30 39
e 30 44
e 30 45
e 30 50
e 30 62
e 31 44
e 31 45
e 31 52
e 31 66
e 31 72
e 32 44
e 32 58
e 32 65
e 32 68
e 32 71
e 33 34
e 33 35
e 33 41
e 33 47
e 33 60
e 33 61
e 34 35
e 34 36
e 34 48
e 34 56
e 34 59
e 34 60
e 34 61
e 35 43
e 35 49
e 35 57
e 35 60
e 35 61
e 36 37
e 36 48
e 36 50
e 36 51
e 36 52
e 36 56
e 36 59
e 37 42
e 37 50
e 37 51
e 37 52
e 37 53
e 38 58
e 38 73
e 39 40
e 39 50
e 39 54
e 39 62
e 40 51
e 40 54
e 40 55
e 40 63
e 41 42
e 41 43
e 41 47
e 41 55
e 41 64
e 41 65
e 42 43
e 42 53
e 42 55
e 42 64
e 42 65
e 43 49
e 43 55
e 43 57
e 43 64
e 43 65
e 44 45
e 44 65
e 44 68
e 44 71
e 45 54
e 45 61
e 45 69
e 45 74
e 46 72
e 46 74
e 47 48
e 47 49
e 47 62
e 47 63
e 48 49
e 48 56
e 48 59
e 48 62
e 48 63
e 49 57
e 49 62
e 49 63
e 50 51
e 50 52
e 50 62
e 51 52
e 51 55
e 51 63
e 52 66
e 52 72
e 53 67
e 53 68
e 53 73
e 54 61
e 54 69
e 54 74
e 55 63
e 55 64
e 55 65
e 56 57
e 56 59
e 56 66
e 56 69
e 57 66
e 57 69
e 58 73
e 59 70
e 59 71
e 60 61
e 60 64
e 60 67
e 60 70
e 61 69
e 61 74
e 62 63
e 64 65
e 64 67
e 64 70
e 65 68
e 65 71
e 66 69
e 66 72
e 67 68
e 67 70
e 67 73
e 68 71
e 68 73
e 69 74
e 70 71
e 72 74
